
  12    4
  10   10   10   10

   0   0   0   0   0   4 2 3 4 11 
  10  10  10  10  10   3 10 8 5 
   1  10  10  10  10   3 9 8 6 
   3  10  10  10  10   1 5 
   4  10  10  10  10   2 7 6 
   7  10  10  10  10   1 12
   6  10  10  10  10   1 12
  10  10  10  10  10   1 12
  10  10  10  10  10   1 12
   3  10  10  10  10   1 12
   8  10  10  10  10   1 12
   0   0   0   0   0   0 
